20170620 55 0 0 0
20160728 50 0 0 0
20150710 50 0 0 0
20140818 100 0 0 0
20130703 100 0 0 0
20120711 60 0 0 0
20110729 70 0 0 0
20090717 10 0 0 0
20080718 10 0 0 0
20070717 80 0 0 0
20060808 250 1200 0 0
20060718 50 0 0 0
20050628 50 0 0 0
20040719 72 0 0 0
20030718 60 0 0 0
20020717 60 0 0 0
20010717 110 0 0 0
19980723 10 0 0 0
19970721 40 0 0 0
